#=======================================================
# FHI-aims file: h2o.in
# Created using the Atomic Simulation Environment (ASE)
# Thu Oct 21 12:32:44 2021
#=======================================================
lattice_vector 3.0000000000000000 0.0000000000000000 0.0000000000000000 
lattice_vector 0.0000000000000000 3.0000000000000000 0.0000000000000000 
lattice_vector 0.0000000000000000 0.0000000000000000 3.0000000000000000 
atom 1.9455012083053589 1.2061362266540527 1.1255115270614624 H
atom 1.9455012083053589 -0.3203417658805847 1.1255115270614624 H
atom 1.9455012083053589 0.4428972601890564 1.7218204736709595 O
